p cnf 135 456
3 1 0
3 2 0
-1 -2 -3 0
5 3 0
5 -4 0
-3 4 -5 0
-7 -5 0
-7 6 0
5 -6 7 0
-8 -1 -9 0
8 1 -9 0
-8 1 9 0
8 -1 9 0
10 -9 0
10 2 0
9 -2 -10 0
-11 -7 0
-11 -10 0
7 10 11 0
12 7 0
12 -7 0
14 -13 0
14 -5 0
13 5 -14 0
15 12 0
15 14 0
-12 -14 -15 0
16 -11 0
16 15 0
11 -15 -16 0
20 -18 0
20 19 0
18 -19 -20 0
21 -17 0
21 6 0
17 -6 -21 0
-20 21 -22 0
20 -21 -22 0
-20 -21 22 0
20 21 22 0
23 17 0
23 -22 0
-17 22 -23 0
-24 -5 0
-24 -23 0
5 23 24 0
-25 -9 -26 0
25 9 -26 0
-25 9 26 0
25 -9 26 0
-27 -25 0
-27 -26 0
25 26 27 0
-28 25 0
-28 -1 0
-25 1 28 0
29 -28 0
29 3 0
28 -3 -29 0
30 29 0
30 25 0
-29 -25 -30 0
30 14 -31 0
-30 -14 -31 0
30 -14 31 0
-30 14 31 0
-32 -27 0
-32 -31 0
27 31 32 0
3 34 -35 0
-3 -34 -35 0
3 -34 35 0
-3 34 35 0
-36 -30 0
-36 -35 0
30 35 36 0
37 -33 0
37 36 0
33 -36 -37 0
-38 -32 0
-38 37 0
32 -37 38 0
-39 -24 0
-39 -38 0
24 38 39 0
-40 -16 0
-40 39 0
16 -39 40 0
41 -33 0
41 33 0
-42 2 0
-42 41 0
-2 -41 42 0
-8 -42 -43 0
8 42 -43 0
-8 42 43 0
8 -42 43 0
-44 -34 0
-44 8 0
34 -8 44 0
19 -44 -45 0
-19 44 -45 0
19 44 45 0
-19 -44 45 0
-46 -43 0
-46 -45 0
43 45 46 0
47 46 0
47 -43 0
-46 43 -47 0
-48 -47 0
-48 -30 0
47 30 48 0
-49 -30 0
-49 -29 0
30 29 49 0
-25 13 -51 0
25 -13 -51 0
-25 -13 51 0
25 13 51 0
52 -18 0
52 -51 0
18 51 -52 0
50 52 -53 0
-50 -52 -53 0
50 -52 53 0
-50 52 53 0
54 20 0
54 -53 0
-20 53 -54 0
55 -49 0
55 -54 0
49 54 -55 0
56 -48 0
56 -55 0
48 55 -56 0
40 -56 -57 0
-40 56 -57 0
40 56 57 0
-40 -56 57 0
-58 52 0
-58 34 0
-52 -34 58 0
59 -58 0
59 -1 0
58 1 -59 0
60 -52 0
60 -59 0
52 59 -60 0
61 43 0
61 -23 0
-43 23 -61 0
23 -53 -62 0
-23 53 -62 0
23 53 62 0
-23 -53 62 0
63 61 0
63 62 0
-61 -62 -63 0
64 60 0
64 -63 0
-60 63 -64 0
65 -35 0
65 -44 0
35 44 -65 0
66 -65 0
66 -30 0
65 30 -66 0
67 64 0
67 -66 0
-64 66 -67 0
-57 67 -68 0
57 -67 -68 0
-57 -67 68 0
57 67 68 0
-70 42 0
-70 -69 0
-42 69 70 0
71 -46 0
71 -8 0
46 8 -71 0
-33 -29 -72 0
33 29 -72 0
-33 29 72 0
33 -29 72 0
-36 72 -73 0
36 -72 -73 0
-36 -72 73 0
36 72 73 0
-74 -8 0
-74 -41 0
8 41 74 0
-14 -75 -76 0
14 75 -76 0
-14 75 76 0
14 -75 76 0
77 2 0
77 1 0
-2 -1 -77 0
78 75 0
78 -77 0
-75 77 -78 0
-76 78 -79 0
76 -78 -79 0
-76 -78 79 0
76 78 79 0
-80 74 0
-80 79 0
-74 -79 80 0
-81 73 0
-81 -80 0
-73 80 81 0
82 20 -83 0
-82 -20 -83 0
82 -20 83 0
-82 20 83 0
-84 -81 0
-84 83 0
81 -83 84 0
-85 -71 0
-85 -84 0
71 84 85 0
-86 70 0
-86 85 0
-70 -85 86 0
87 -11 0
87 -23 0
11 23 -87 0
-50 -5 -88 0
50 5 -88 0
-50 5 88 0
50 -5 88 0
-9 42 -89 0
9 -42 -89 0
-9 -42 89 0
9 42 89 0
-90 88 0
-90 -89 0
-88 89 90 0
-87 -90 -91 0
87 90 -91 0
-87 90 91 0
87 -90 91 0
92 41 0
92 52 0
-41 -52 -92 0
1 -92 -93 0
-1 92 -93 0
1 92 93 0
-1 -92 93 0
-94 25 0
-94 -93 0
-25 93 94 0
95 72 0
95 7 0
-72 -7 -95 0
96 95 0
96 14 0
-95 -14 -96 0
-97 23 0
-97 23 0
-23 97 0
-30 18 -98 0
30 -18 -98 0
-30 -18 98 0
30 18 98 0
99 -98 0
99 -46 0
98 46 -99 0
100 -97 0
100 -99 0
97 99 -100 0
96 100 -101 0
-96 -100 -101 0
96 -100 101 0
-96 100 101 0
102 -94 0
102 -101 0
94 101 -102 0
103 -2 0
103 9 0
2 -9 -103 0
104 9 0
104 59 0
-9 -59 -104 0
103 104 -105 0
-103 -104 -105 0
103 -104 105 0
-103 104 105 0
-26 43 -106 0
26 -43 -106 0
-26 -43 106 0
26 43 106 0
-105 -106 -107 0
105 106 -107 0
-105 106 107 0
105 -106 107 0
-108 11 0
-108 28 0
-11 -28 108 0
108 -23 -109 0
-108 23 -109 0
108 23 109 0
-108 -23 109 0
107 -109 -110 0
-107 109 -110 0
107 109 110 0
-107 -109 110 0
-102 -110 -111 0
102 110 -111 0
-102 110 111 0
102 -110 111 0
112 -50 0
112 43 0
50 -43 -112 0
-28 51 -113 0
28 -51 -113 0
-28 -51 113 0
28 51 113 0
114 -93 0
114 72 0
93 -72 -114 0
113 -114 -115 0
-113 114 -115 0
113 114 115 0
-113 -114 115 0
-112 -115 -116 0
112 115 -116 0
-112 115 116 0
112 -115 116 0
-117 -65 0
-117 -25 0
65 25 117 0
118 -33 0
118 -52 0
33 52 -118 0
118 -21 -119 0
-118 21 -119 0
118 21 119 0
-118 -21 119 0
-117 -119 -120 0
117 119 -120 0
-117 119 120 0
117 -119 120 0
-121 116 0
-121 120 0
-116 -120 121 0
-122 4 0
-122 -2 0
-4 2 122 0
121 -122 -123 0
-121 122 -123 0
121 122 123 0
-121 -122 123 0
-124 -111 0
-124 123 0
111 -123 124 0
91 -124 -125 0
-91 124 -125 0
91 124 125 0
-91 -124 125 0
50 -44 -126 0
-50 44 -126 0
50 44 126 0
-50 -44 126 0
-126 -17 -127 0
126 17 -127 0
-126 17 127 0
126 -17 127 0
-127 -43 -128 0
127 43 -128 0
-127 43 128 0
127 -43 128 0
125 -128 -129 0
-125 128 -129 0
125 128 129 0
-125 -128 129 0
130 86 0
130 129 0
-86 -129 -130 0
-131 19 0
-131 -92 0
-19 92 131 0
-132 58 0
-132 72 0
-58 -72 132 0
133 -131 0
133 132 0
131 -132 -133 0
130 -133 -134 0
-130 133 -134 0
130 133 134 0
-130 -133 134 0
135 68 0
135 -134 0
-68 134 -135 0
-4 31 95 124 0
11 60 -87 104 -84 -113 0
-71 98 -1 0
-20 -104 33 -11 0
84 94 -46 97 11 102 0
-107 -30 -70 -7 0
-129 52 131 1 0
78 106 27 0
128 -76 0
-135 24 -112 86 -77 0
-37 -67 -65 -77 -15 56 0
-74 -119 -34 47 22 0
40 25 -94 44 67 0
-133 58 -26 -100 12 -74 0
-86 -17 71 0
-115 -81 -61 -94 0
103 76 0
-31 -90 0
32 33 -45 -63 -8 0
81 49 -59 0
-48 -101 -45 0
95 103 -57 40 -51 -62 0
19 85 -80 0
-42 -114 68 -108 -88 0
-118 -55 53 113 0
-98 128 46 0
120 -68 -119 -84 0
8 -23 18 0
101 -99 0
-29 71 0
-37 -18 24 -123 -131 0
-19 123 63 -55 0
130 -109 51 0
27 -33 77 0
-38 80 -46 109 0
77 81 59 0
-52 -105 -74 0
37 -28 14 -13 115 0
-110 17 60 -28 -85 0
-123 46 -101 -49 0
118 -78 107 -67 0
-60 -52 0
-98 -121 -7 -11 0
91 -16 117 -47 -127 0
-61 132 -127 -22 27 0
-48 86 34 -128 -81 0
10 98 134 -108 109 0
13 18 85 5 -134 52 0
-72 -121 -99 21 -89 0
106 -81 0
113 41 16 -57 -45 0
-98 119 121 79 0
-115 -98 -100 0
69 34 0
87 -31 113 82 0
-11 33 56 -60 101 0
-11 -27 -59 0
-71 -20 0
135 -3 82 13 -25 127 0
135 0
